# 6891
param k := 6;
param n := 60;
param s := 1;
set E :=  (0,50) (1,41) (2,4) (2,16) (2,23) (2,25) (3,5) (3,15) (3,29) (5,34) (6,8) (7,43) (8,12) (8,14) (8,33) (9,29) (10,48) (11,38) (12,30) (12,53) (12,56) (13,40) (14,18) (15,42) (16,37) (16,45) (16,53) (17,19) (17,59) (19,22) (20,41) (20,44) (21,27) (21,36) (21,56) (23,39) (23,47) (23,54) (24,38) (24,40) (26,39) (26,50) (27,35) (28,44) (28,59) (29,45) (30,55) (31,37) (31,49) (32,56) (34,41) (36,57) (36,58) (37,48) (38,42) (41,43) (41,46) (46,51) (52,53);